
  32    4
  10   10   10   10

   0   0   0   0   0   2 2 8 
   1  10  10  10  10   1 3 
   3  10  10  10  10   3 26 5 4 
   4  10  10  10  10   2 10 6 
   6  10  10  10  10   5 15 14 12 10 9 
   9  10  10  10  10   1 7 
   3  10  10  10  10   5 20 15 14 12 9 
   6  10  10  10  10   4 26 20 14 9 
   9  10  10  10  10   3 31 18 11 
   4  10  10  10  10   2 20 13 
  10  10  10  10  10   1 13 
   4  10  10  10  10   2 18 17 
   6  10  10  10  10   1 16 
   8  10  10  10  10   1 16 
   1  10  10  10  10   1 16 
   9  10  10  10  10   1 17 
   6  10  10  10  10   4 30 28 25 19 
   9  10  10  10  10   4 30 28 25 19 
   5  10  10  10  10   3 29 24 21 
   1  10  10  10  10   3 31 28 27 
   2  10  10  10  10   1 22 
   8  10  10  10  10   1 23 
   7  10  10  10  10   1 27 
   5  10  10  10  10   1 27 
   3  10  10  10  10   1 27 
   8  10  10  10  10   1 31 
   9  10  10  10  10   1 32
   5  10  10  10  10   1 32
   5  10  10  10  10   1 32
   7  10  10  10  10   1 32
   9  10  10  10  10   1 32
   0   0   0   0   0   0 
